Sr1 Al3                                 
   1.00000000000000     
     4.4733473355001196    0.0000000000000000    0.0000000000000000
     0.0000000000000000    4.4748407966515327    0.0000000000000000
     0.0000000000000000    0.0000000000000000    4.4748407966515327
   Sr   Al
     1     3
Direct
  0.0000000000000000  0.0000000000000000  0.0000000000000000
  0.5000000000000000  0.5000000000000000  0.0000000000000000
  0.5000000000000000  0.0000000000000000  0.5000000000000000
  0.0000000000000000  0.5000000000000000  0.5000000000000000
 
  0.00000000E+00  0.00000000E+00  0.00000000E+00
  0.00000000E+00  0.00000000E+00  0.00000000E+00
  0.00000000E+00  0.00000000E+00  0.00000000E+00
  0.00000000E+00  0.00000000E+00  0.00000000E+00
