Li1 Al3                                 
   1.00000000000000     
     4.0254882003050945    0.0000000000000000    0.0000000000000000
     0.0000000000000000    4.0254882003050945    0.0000000000000000
     0.0000000000000000    0.0000000000000000    4.0254882003050945
   Li   Al
     1     3
Direct
  0.0000000000000000  0.0000000000000000  0.0000000000000000
  0.5000000000000000  0.5000000000000000  0.0000000000000000
  0.5000000000000000  0.0000000000000000  0.5000000000000000
  0.0000000000000000  0.5000000000000000  0.5000000000000000
 
  0.00000000E+00  0.00000000E+00  0.00000000E+00
  0.00000000E+00  0.00000000E+00  0.00000000E+00
  0.00000000E+00  0.00000000E+00  0.00000000E+00
  0.00000000E+00  0.00000000E+00  0.00000000E+00
