Sr2                                     
   1.00000000000000     
     4.2580925594488805   -0.0000000026514869    0.0000000000000000
    -2.1290456133027051    3.6876159338106023    0.0000000000000000
     0.0000000000000000    0.0000000000000000    7.0332839393544146
   Sr
     2
Direct
  0.3333330000000032  0.6666669999999968  0.2500000000000000
  0.6666669999999968  0.3333330000000032  0.7500000000000000
 
  0.00000000E+00  0.00000000E+00  0.00000000E+00
  0.00000000E+00  0.00000000E+00  0.00000000E+00
