Cu4
   1.00000000000000
     3.6345473387697345    0.0000000000000000    0.0000000000000000
     0.0000000000000000    3.6345473387697345    0.0000000000000000
     0.0000000000000000    0.0000000000000000    3.6345473387697345
   Cu
     4
Direct
  0.0000000000000000  0.0000000000000000  0.0000000000000000
  0.0000000000000000  0.5000000000000000  0.5000000000000000
  0.5000000000000000  0.0000000000000000  0.5000000000000000
  0.5000000000000000  0.5000000000000000  0.0000000000000000

  0.00000000E+00  0.00000000E+00  0.00000000E+00
  0.00000000E+00  0.00000000E+00  0.00000000E+00
  0.00000000E+00  0.00000000E+00  0.00000000E+00
  0.00000000E+00  0.00000000E+00  0.00000000E+00
