Nb2
   1.0000000000000000
     3.3217793369026238    0.0000000000000000    0.0000000000000002
     0.0000000000000005    3.3217793369026238    0.0000000000000002
    -0.0000000000000000   -0.0000000000000000    3.3217793369026238
   Nb
     2
Direct
  0.0000000000000000 -0.0000000000000000 -0.0000000000000000
  0.5000000000000000  0.5000000000000000  0.5000000000000000

  0.00000000E+00  0.00000000E+00  0.00000000E+00
  0.00000000E+00  0.00000000E+00  0.00000000E+00
