Nb28 O70                                
   1.00000000000000     
    17.8122917203621149    0.0000000000000000   -8.5765176674218200
     0.0000000000000000    3.8731796208485028    0.0000000000000000
     0.0021855635266991    0.0000000000000000   20.7997903278947085
   Nb   O 
    28    70
Direct
  0.8402563981311033  0.9873293731576638  0.8342427769035723
  0.5785260362369371  0.5005327393253935  0.7032723306693853
  0.9961312149720172  0.0083167396907982  0.7633312197916453
  0.8442242981673687  0.9769631717940825  0.5668748561245351
  0.3066916952312653  0.0021333893609778  0.6287429422389152
  0.0038687850279828  0.0083167396907982  0.2366687802083547
  0.8483666104050727  0.9944674060275176  0.3034113125126225
  0.2658752314762935  0.4939388726854688  0.8415402048449181
  0.6852306682683817  0.0003960987943756  0.6390336992337637
  0.3147693317316183  0.0003960987943756  0.3609663007662363
  0.1516333895949273  0.9944674060275176  0.6965886874873775
  0.4682058673669687  0.0004759969429813  0.5621411735299731
  0.8894399292880664  0.5155297596999375  0.0925510052257579
  0.4187837376940990  0.4991032571029095  0.7706454147774053
  0.7345564274525032  0.4929261281607253  0.8978436746757836
  0.5748612368236792  0.5288452571762434  0.9640434316819793
  0.4214739637630629  0.5005327393253935  0.2967276693306147
  0.0000000000000000  0.0270879657982022  0.5000000000000000
  0.0000000000000000  0.2342718458002224  0.0000000000000000
  0.1105600707119336  0.5155297596999375  0.9074489947742421
  0.5317941326330313  0.0004759969429813  0.4378588264700269
  0.1557757018326313  0.9769631717940825  0.4331251438754649
  0.5812162623058938  0.4991032571029095  0.2293545852225947
  0.7341247685237065  0.4939388726854688  0.1584597951550819
  0.1597436018688967  0.9873293731576638  0.1657572230964277
  0.6933083047687347  0.0021333893609778  0.3712570577610848
  0.4251387631763208  0.5288452571762434  0.0359565683180207
  0.2654435725474968  0.4929261281607253  0.1021563253242164
  0.8182004895042780  0.5003669362223846  0.1319578078432215
  0.6605252922539222  0.4946541553736665  0.0663410608086892
  0.2454401691366073  0.9971546965934337  0.8130285606931551
  0.4226069243695889  0.0004974305088297  0.4616803675265118
  0.9131066327289545  0.9936705525968463  0.9389460500872602
  0.9862520949431328  0.5051892964163542  0.2062939589257056
  0.5950746406652812  0.0000881537275461  0.2594605902346103
  0.9208781946625209  0.9922715862967735  0.5363350850867192
  0.5773930756304111  0.0004974305088297  0.5383196324734882
  0.8353157945909047  0.4980012385315220  0.5737248877061418
  0.6588940176428864  0.5002005852187423  0.2013256453150589
  0.4988665967073302  0.4983417812452515  0.8616912445846836
  0.5738752182333471  0.0004917060535234  0.6704654621070389
  0.1646842054090953  0.4980012385315220  0.4262751122938582
  0.4049253593347188  0.0000881537275461  0.7405394097653897
  0.6596465629795034  0.5000116570846629  0.7912355106632560
  0.3354264814132932  0.5009029818380952  0.6529404886390680
  0.4963987040648021  0.5004492696646849  0.5856401170078982
  0.5849018038420510  0.0023453558553328  0.9630600996694412
  0.3411059823571136  0.5002005852187423  0.7986743546849411
  0.0818926742461485  0.0080831471552685  0.3267254296758395
  0.7535456541549763  0.9999003638667858  0.7370763349398715
  0.6570777243140284  0.5004017536405740  0.6450050062633039
  0.9235860041967854  0.0010309265176076  0.2644338826409935
  0.1797707925283376  0.4940393141042492  0.1532860290913689
  0.7620039957263032  0.0039361213307956  0.4663744354119146
  0.5036012959351908  0.5004492696646849  0.4143598829921018
  0.2378240187127005  0.0000635257740740  0.6681401543991612
  0.3925084361583302  0.0002847817201257  0.5887208075762587
  0.1739848056669970  0.4974139375930875  0.7230771432577896
  0.1817995104957220  0.5003669362223846  0.8680421921567785
  0.0000000000000000  0.5022390373956540  0.5000000000000000
  0.9737418411355705  0.5061257359731073  0.0594848294413239
  0.4261247817666529  0.0004917060535234  0.3295345378929611
  0.0868933672710455  0.9936705525968463  0.0610539499127398
  0.8183893350955387  0.5056089830150157  0.9967732225624175
  0.9181073257538515  0.0080831471552685  0.6732745703241605
  0.5011334032926698  0.4983417812452515  0.1383087554153164
  0.4150981961579490  0.0023453558553328  0.0369399003305588
  0.0811454118527308  0.9962085982177484  0.6025434718958209
  0.3403534370204966  0.5000116570846629  0.2087644893367440
  0.0857191188939481  0.9944953423009864  0.1955484108529575
  0.9142808811060519  0.9944953423009864  0.8044515891470425
  0.4987522886901985  0.5006568370847830  0.2719794594072127
  0.7621759812872995  0.0000635257740740  0.3318598456008388
  0.7545598308633927  0.9971546965934337  0.1869714393068449
  0.7478002957524410  0.9993146236547190  0.5974052617859442
  0.0137479050568672  0.5051892964163542  0.7937060410742944
  0.8260151943330030  0.4974139375930875  0.2769228567422104
  0.8202292074716624  0.4940393141042492  0.8467139709086311
  0.9188545881472692  0.9962085982177484  0.3974565281041791
  0.3429222756859716  0.5004017536405740  0.3549949937366961
  0.2521997042475590  0.9993146236547190  0.4025947382140558
  0.0849640531865461  0.0069865217574403  0.8821655479486878
  0.6606593449349205  0.4947756564473096  0.9268288224571677
  0.6645735185867068  0.5009029818380952  0.3470595113609320
  0.1816106649044613  0.5056089830150157  0.0032267774375825
  0.5012477113098015  0.5006568370847830  0.7280205405927873
  0.0262581588644295  0.5061257359731073  0.9405151705586761
  0.6074915638416698  0.0002847817201257  0.4112791924237413
  0.0791218053374791  0.9922715862967735  0.4636649149132808
  0.2379960042736968  0.0039361213307956  0.5336255645880854
  0.5000000000000000  0.5043962492961143  0.0000000000000000
  0.9150359468134539  0.0069865217574403  0.1178344520513122
  0.0764139958032146  0.0010309265176076  0.7355661173590065
  0.3394747077460778  0.4946541553736665  0.9336589391913108
  0.7524301363826780  0.9960807075545262  0.8851044271051052
  0.3393406550650795  0.4947756564473096  0.0731711775428323
  0.2475698636173220  0.9960807075545262  0.1148955728948948
  0.2464543458450237  0.9999003638667858  0.2629236650601285
 
  0.00000000E+00  0.00000000E+00  0.00000000E+00
  0.00000000E+00  0.00000000E+00  0.00000000E+00
  0.00000000E+00  0.00000000E+00  0.00000000E+00
  0.00000000E+00  0.00000000E+00  0.00000000E+00
  0.00000000E+00  0.00000000E+00  0.00000000E+00
  0.00000000E+00  0.00000000E+00  0.00000000E+00
  0.00000000E+00  0.00000000E+00  0.00000000E+00
  0.00000000E+00  0.00000000E+00  0.00000000E+00
  0.00000000E+00  0.00000000E+00  0.00000000E+00
  0.00000000E+00  0.00000000E+00  0.00000000E+00
  0.00000000E+00  0.00000000E+00  0.00000000E+00
  0.00000000E+00  0.00000000E+00  0.00000000E+00
  0.00000000E+00  0.00000000E+00  0.00000000E+00
  0.00000000E+00  0.00000000E+00  0.00000000E+00
  0.00000000E+00  0.00000000E+00  0.00000000E+00
  0.00000000E+00  0.00000000E+00  0.00000000E+00
  0.00000000E+00  0.00000000E+00  0.00000000E+00
  0.00000000E+00  0.00000000E+00  0.00000000E+00
  0.00000000E+00  0.00000000E+00  0.00000000E+00
  0.00000000E+00  0.00000000E+00  0.00000000E+00
  0.00000000E+00  0.00000000E+00  0.00000000E+00
  0.00000000E+00  0.00000000E+00  0.00000000E+00
  0.00000000E+00  0.00000000E+00  0.00000000E+00
  0.00000000E+00  0.00000000E+00  0.00000000E+00
  0.00000000E+00  0.00000000E+00  0.00000000E+00
  0.00000000E+00  0.00000000E+00  0.00000000E+00
  0.00000000E+00  0.00000000E+00  0.00000000E+00
  0.00000000E+00  0.00000000E+00  0.00000000E+00
  0.00000000E+00  0.00000000E+00  0.00000000E+00
  0.00000000E+00  0.00000000E+00  0.00000000E+00
  0.00000000E+00  0.00000000E+00  0.00000000E+00
  0.00000000E+00  0.00000000E+00  0.00000000E+00
  0.00000000E+00  0.00000000E+00  0.00000000E+00
  0.00000000E+00  0.00000000E+00  0.00000000E+00
  0.00000000E+00  0.00000000E+00  0.00000000E+00
  0.00000000E+00  0.00000000E+00  0.00000000E+00
  0.00000000E+00  0.00000000E+00  0.00000000E+00
  0.00000000E+00  0.00000000E+00  0.00000000E+00
  0.00000000E+00  0.00000000E+00  0.00000000E+00
  0.00000000E+00  0.00000000E+00  0.00000000E+00
  0.00000000E+00  0.00000000E+00  0.00000000E+00
  0.00000000E+00  0.00000000E+00  0.00000000E+00
  0.00000000E+00  0.00000000E+00  0.00000000E+00
  0.00000000E+00  0.00000000E+00  0.00000000E+00
  0.00000000E+00  0.00000000E+00  0.00000000E+00
  0.00000000E+00  0.00000000E+00  0.00000000E+00
  0.00000000E+00  0.00000000E+00  0.00000000E+00
  0.00000000E+00  0.00000000E+00  0.00000000E+00
  0.00000000E+00  0.00000000E+00  0.00000000E+00
  0.00000000E+00  0.00000000E+00  0.00000000E+00
  0.00000000E+00  0.00000000E+00  0.00000000E+00
  0.00000000E+00  0.00000000E+00  0.00000000E+00
  0.00000000E+00  0.00000000E+00  0.00000000E+00
  0.00000000E+00  0.00000000E+00  0.00000000E+00
  0.00000000E+00  0.00000000E+00  0.00000000E+00
  0.00000000E+00  0.00000000E+00  0.00000000E+00
  0.00000000E+00  0.00000000E+00  0.00000000E+00
  0.00000000E+00  0.00000000E+00  0.00000000E+00
  0.00000000E+00  0.00000000E+00  0.00000000E+00
  0.00000000E+00  0.00000000E+00  0.00000000E+00
  0.00000000E+00  0.00000000E+00  0.00000000E+00
  0.00000000E+00  0.00000000E+00  0.00000000E+00
  0.00000000E+00  0.00000000E+00  0.00000000E+00
  0.00000000E+00  0.00000000E+00  0.00000000E+00
  0.00000000E+00  0.00000000E+00  0.00000000E+00
  0.00000000E+00  0.00000000E+00  0.00000000E+00
  0.00000000E+00  0.00000000E+00  0.00000000E+00
  0.00000000E+00  0.00000000E+00  0.00000000E+00
  0.00000000E+00  0.00000000E+00  0.00000000E+00
  0.00000000E+00  0.00000000E+00  0.00000000E+00
  0.00000000E+00  0.00000000E+00  0.00000000E+00
  0.00000000E+00  0.00000000E+00  0.00000000E+00
  0.00000000E+00  0.00000000E+00  0.00000000E+00
  0.00000000E+00  0.00000000E+00  0.00000000E+00
  0.00000000E+00  0.00000000E+00  0.00000000E+00
  0.00000000E+00  0.00000000E+00  0.00000000E+00
  0.00000000E+00  0.00000000E+00  0.00000000E+00
  0.00000000E+00  0.00000000E+00  0.00000000E+00
  0.00000000E+00  0.00000000E+00  0.00000000E+00
  0.00000000E+00  0.00000000E+00  0.00000000E+00
  0.00000000E+00  0.00000000E+00  0.00000000E+00
  0.00000000E+00  0.00000000E+00  0.00000000E+00
  0.00000000E+00  0.00000000E+00  0.00000000E+00
  0.00000000E+00  0.00000000E+00  0.00000000E+00
  0.00000000E+00  0.00000000E+00  0.00000000E+00
  0.00000000E+00  0.00000000E+00  0.00000000E+00
  0.00000000E+00  0.00000000E+00  0.00000000E+00
  0.00000000E+00  0.00000000E+00  0.00000000E+00
  0.00000000E+00  0.00000000E+00  0.00000000E+00
  0.00000000E+00  0.00000000E+00  0.00000000E+00
  0.00000000E+00  0.00000000E+00  0.00000000E+00
  0.00000000E+00  0.00000000E+00  0.00000000E+00
  0.00000000E+00  0.00000000E+00  0.00000000E+00
  0.00000000E+00  0.00000000E+00  0.00000000E+00
  0.00000000E+00  0.00000000E+00  0.00000000E+00
  0.00000000E+00  0.00000000E+00  0.00000000E+00
  0.00000000E+00  0.00000000E+00  0.00000000E+00
  0.00000000E+00  0.00000000E+00  0.00000000E+00
