Mn1 Al3                                 
   1.00000000000000     
     3.8508460897307093    0.0000000000000000    0.0000000000000000
     0.0000000000000000    3.8518146053299347    0.0000000000000000
     0.0000000000000000    0.0000000000000000    3.8518146053299347
   Mn   Al
     1     3
Direct
  0.0000000000000000  0.0000000000000000  0.0000000000000000
  0.5000000000000000  0.5000000000000000  0.0000000000000000
  0.5000000000000000  0.0000000000000000  0.5000000000000000
  0.0000000000000000  0.5000000000000000  0.5000000000000000
 
  0.00000000E+00  0.00000000E+00  0.00000000E+00
  0.00000000E+00  0.00000000E+00  0.00000000E+00
  0.00000000E+00  0.00000000E+00  0.00000000E+00
  0.00000000E+00  0.00000000E+00  0.00000000E+00
