In4 P4
1.0
5.956726 0.000000 0.000000
0.000000 5.956726 0.000000
0.000000 0.000000 5.956726
In P
4 4
direct
0.000000 0.000000 0.000000 In
0.000000 0.500000 0.500000 In
0.500000 0.000000 0.500000 In
0.500000 0.500000 0.000000 In
0.250000 0.250000 0.750000 P
0.250000 0.750000 0.250000 P
0.750000 0.250000 0.250000 P
0.750000 0.750000 0.750000 P
