Ca4 O4
1.0
4.839266 0.000000 0.000000
0.000000 4.839266 0.000000
0.000000 0.000000 4.839266
Ca O
4 4
direct
0.000000 0.000000 0.000000 Ca
0.000000 0.500000 0.500000 Ca
0.500000 0.000000 0.500000 Ca
0.500000 0.500000 0.000000 Ca
0.500000 0.000000 0.000000 O
0.500000 0.500000 0.500000 O
0.000000 0.000000 0.500000 O
0.000000 0.500000 0.000000 O
