Hf2                                     
   1.00000000000000     
     3.1992170930519142    0.0000000065774109    0.0000000000000000
    -1.5996080384043139    2.7706029654004598    0.0000000000000000
     0.0000000000000000    0.0000000000000000    5.0659143718569961
   Hf
     2
Direct
  0.3333330000000032  0.6666669999999968  0.2500000000000000
  0.6666669999999968  0.3333330000000032  0.7500000000000000
 
  0.00000000E+00  0.00000000E+00  0.00000000E+00
  0.00000000E+00  0.00000000E+00  0.00000000E+00
