Sr4                                     
   1.00000000000000     
     6.0313705007190510    0.0000000000000000    0.0000000000000000
     0.0000000000000000    6.0313705007190510    0.0000000000000000
     0.0000000000000000    0.0000000000000000    6.0313705007190510
   Sr
     4
Direct
  0.0000000000000000  0.0000000000000000  0.0000000000000000
  0.0000000000000000  0.5000000000000000  0.5000000000000000
  0.5000000000000000  0.0000000000000000  0.5000000000000000
  0.5000000000000000  0.5000000000000000  0.0000000000000000
 
  0.00000000E+00  0.00000000E+00  0.00000000E+00
  0.00000000E+00  0.00000000E+00  0.00000000E+00
  0.00000000E+00  0.00000000E+00  0.00000000E+00
  0.00000000E+00  0.00000000E+00  0.00000000E+00
