Mg1 Al3                                 
   1.00000000000000     
     4.1390444335233241    0.0000000000000000    0.0000000000000000
     0.0000000000000000    4.1390444335233241    0.0000000000000000
     0.0000000000000000    0.0000000000000000    4.1390444335233241
   Mg   Al
     1     3
Direct
  0.0000000000000000  0.0000000000000000  0.0000000000000000
  0.5000000000000000  0.5000000000000000  0.0000000000000000
  0.5000000000000000  0.0000000000000000  0.5000000000000000
  0.0000000000000000  0.5000000000000000  0.5000000000000000
 
  0.00000000E+00  0.00000000E+00  0.00000000E+00
  0.00000000E+00  0.00000000E+00  0.00000000E+00
  0.00000000E+00  0.00000000E+00  0.00000000E+00
  0.00000000E+00  0.00000000E+00  0.00000000E+00
