Ti2                                     
   1.00000000000000     
     2.9330654228605693    0.0000000054189142    0.0000000000000000
    -1.4665322461100834    2.5401088844317137    0.0000000000000000
     0.0000000000000000    0.0000000000000000    4.6500497768379878
   Ti
     2
Direct
  0.3333330000000032  0.6666669999999968  0.2500000000000000
  0.6666669999999968  0.3333330000000032  0.7500000000000000
 
  0.00000000E+00  0.00000000E+00  0.00000000E+00
  0.00000000E+00  0.00000000E+00  0.00000000E+00
