Mg2                                     
   1.00000000000000     
     3.1896149533430420    0.0000000010608447    0.0000000000000000
    -1.5948069748353448    2.7622872778311036    0.0000000000000000
     0.0000000000000000    0.0000000000000000    5.1922687045681837
   Mg
     2
Direct
  0.3333330000000032  0.6666669999999968  0.2500000000000000
  0.6666669999999968  0.3333330000000032  0.7500000000000000
 
  0.00000000E+00  0.00000000E+00  0.00000000E+00
  0.00000000E+00  0.00000000E+00  0.00000000E+00
