Li4Fe4P4O16                             
   1.00000000000000     
     4.7272049081754970    0.0000000000000000    0.0000000000000000
     0.0000000000000000    6.0302066773356477    0.0000000000000000
     0.0000000000000000    0.0000000000000000   10.3983228388411195
   Li   Fe   P    O 
     4     4     4    16
Direct
  0.0000000000000000  0.0000000000000000  0.5000000000000000
  0.5000000000000000  0.0000000000000000  0.0000000000000000
  0.5000000000000000  0.5000000000000000  0.0000000000000000
  0.0000000000000000  0.5000000000000000  0.5000000000000000
  0.4775201317363980  0.7500000000000000  0.7180673857853463
  0.0224798682636020  0.7500000000000000  0.2180673857853463
  0.9775201317363980  0.2500000000000000  0.7819326142146537
  0.5224798682636020  0.2500000000000000  0.2819336142146511
  0.4212975576423901  0.2500000000000000  0.5952269931136271
  0.9212975576423901  0.7500000000000000  0.9047730068863729
  0.0787024423576099  0.2500000000000000  0.0952279931136246
  0.5787024423576099  0.7500000000000000  0.4047720068863754
  0.7462243902262884  0.2500000000000000  0.5957090693511233
  0.2462243902262884  0.7500000000000000  0.9042909306488767
  0.7537756097737116  0.2500000000000000  0.0957090693511233
  0.2537756097737116  0.7500000000000000  0.4042919306488741
  0.2072026046303534  0.2500000000000000  0.9574790492350260
  0.7072026046303534  0.7500000000000000  0.5425209507649740
  0.2927973953696466  0.2500000000000000  0.4574790492350260
  0.7927973953696466  0.7500000000000000  0.0425199507649765
  0.2882287190325599  0.0449831167577699  0.6667472170318618
  0.7882287190325599  0.9550168832422301  0.8332527829681382
  0.7882287190325599  0.5449831167577699  0.8332527829681382
  0.2882287190325599  0.4550168832422301  0.6667472170318618
  0.2117712809674401  0.4550168832422301  0.1667472170318618
  0.7117712809674401  0.5449831167577699  0.3332527829681382
  0.7117712809674401  0.9550168832422301  0.3332527829681382
  0.2117712809674401  0.0449831167577699  0.1667472170318618
 
  0.00000000E+00  0.00000000E+00  0.00000000E+00
  0.00000000E+00  0.00000000E+00  0.00000000E+00
  0.00000000E+00  0.00000000E+00  0.00000000E+00
  0.00000000E+00  0.00000000E+00  0.00000000E+00
  0.00000000E+00  0.00000000E+00  0.00000000E+00
  0.00000000E+00  0.00000000E+00  0.00000000E+00
  0.00000000E+00  0.00000000E+00  0.00000000E+00
  0.00000000E+00  0.00000000E+00  0.00000000E+00
  0.00000000E+00  0.00000000E+00  0.00000000E+00
  0.00000000E+00  0.00000000E+00  0.00000000E+00
  0.00000000E+00  0.00000000E+00  0.00000000E+00
  0.00000000E+00  0.00000000E+00  0.00000000E+00
  0.00000000E+00  0.00000000E+00  0.00000000E+00
  0.00000000E+00  0.00000000E+00  0.00000000E+00
  0.00000000E+00  0.00000000E+00  0.00000000E+00
  0.00000000E+00  0.00000000E+00  0.00000000E+00
  0.00000000E+00  0.00000000E+00  0.00000000E+00
  0.00000000E+00  0.00000000E+00  0.00000000E+00
  0.00000000E+00  0.00000000E+00  0.00000000E+00
  0.00000000E+00  0.00000000E+00  0.00000000E+00
  0.00000000E+00  0.00000000E+00  0.00000000E+00
  0.00000000E+00  0.00000000E+00  0.00000000E+00
  0.00000000E+00  0.00000000E+00  0.00000000E+00
  0.00000000E+00  0.00000000E+00  0.00000000E+00
  0.00000000E+00  0.00000000E+00  0.00000000E+00
  0.00000000E+00  0.00000000E+00  0.00000000E+00
  0.00000000E+00  0.00000000E+00  0.00000000E+00
  0.00000000E+00  0.00000000E+00  0.00000000E+00
