Zr2                                     
   1.00000000000000     
     3.2288608878114493    0.0000000040132177    0.0000000000000000
    -1.6144299333492871    2.7962752458813092    0.0000000000000000
     0.0000000000000000    0.0000000000000000    5.1773780170857728
   Zr
     2
Direct
  0.3333330000000032  0.6666669999999968  0.2500000000000000
  0.6666669999999968  0.3333330000000032  0.7500000000000000
 
  0.00000000E+00  0.00000000E+00  0.00000000E+00
  0.00000000E+00  0.00000000E+00  0.00000000E+00
