Cu1 Al3                                 
   1.00000000000000     
     3.9303364906510714    0.0000000000000000    0.0000000000000000
     0.0000000000000000    3.9312378515992101    0.0000000000000000
     0.0000000000000000    0.0000000000000000    3.9312378515992101
   Cu   Al
     1     3
Direct
  0.0000000000000000  0.0000000000000000  0.0000000000000000
  0.5000000000000000  0.5000000000000000  0.0000000000000000
  0.5000000000000000  0.0000000000000000  0.5000000000000000
  0.0000000000000000  0.5000000000000000  0.5000000000000000
 
  0.00000000E+00  0.00000000E+00  0.00000000E+00
  0.00000000E+00  0.00000000E+00  0.00000000E+00
  0.00000000E+00  0.00000000E+00  0.00000000E+00
  0.00000000E+00  0.00000000E+00  0.00000000E+00
