Sc1 Al3                                 
   1.00000000000000     
     4.1063754587635257    0.0000000000000000    0.0000000000000000
     0.0000000000000000    4.1063754587635257    0.0000000000000000
     0.0000000000000000    0.0000000000000000    4.1063754587635257
   Sc   Al
     1     3
Direct
  0.0000000000000000  0.0000000000000000  0.0000000000000000
  0.5000000000000000  0.0000000000000000  0.5000000000000000
  0.0000000000000000  0.5000000000000000  0.5000000000000000
  0.5000000000000000  0.5000000000000000  0.0000000000000000
 
  0.00000000E+00  0.00000000E+00  0.00000000E+00
  0.00000000E+00  0.00000000E+00  0.00000000E+00
  0.00000000E+00  0.00000000E+00  0.00000000E+00
  0.00000000E+00  0.00000000E+00  0.00000000E+00
