Al13Fe4-5- Fe Fe Mn_pv Fe Fe            
   1.00000000000000     
    15.4558203256961857    0.0000000000000000   -0.0016899347930825
     0.0000000000000000    8.0367469673768337    0.0000000000000000
    -3.7819691872947017    0.0000000000000000   11.8639296893609476
   Fe   Mn   Al
    20     4    78
Selective dynamics
Direct
  0.0852945167441419  0.0000000000000000  0.3836477936685350   F   F   T
  0.9147055272558617  0.0000000000000000  0.6163522363314676   F   F   T
  0.5852945397441403  0.5000000000000000  0.3836477936685350   F   F   T
  0.4147054972558664  0.5000000000000000  0.6163522363314676   F   F   T
  0.4013664170800411  0.0000000000000000  0.6244703365340635   F   F   T
  0.5986335879199629  0.0000000000000000  0.3755296934659319   F   F   T
  0.9013664480800401  0.5000000000000000  0.6244703365340635   F   F   T
  0.0986335959199636  0.5000000000000000  0.3755296934659319   F   F   T
  0.4020095278877704  0.0000000000000000  0.9857843185570844   F   F   T
  0.5979904681122292  0.0000000000000000  0.0142157364429094   F   F   T
  0.9020095128877728  0.5000000000000000  0.9857843185570844   F   F   T
  0.0979904841122305  0.5000000000000000  0.0142157364429094   F   F   T
  0.3198614855863724  0.2931615925511153  0.2780014331226332   F   F   T
  0.6801385254136250  0.7068384074488847  0.7219986168773639   F   F   T
  0.6801385254136250  0.2931615925511153  0.7219986168773639   F   F   T
  0.3198614855863724  0.7068384074488847  0.2780014331226332   F   F   T
  0.8198614245863709  0.7931615925511153  0.2780014331226332   F   F   T
  0.1801385094136307  0.2068383934488907  0.7219986168773639   F   F   T
  0.1801385094136307  0.7931615925511153  0.7219986168773639   F   F   T
  0.8198614245863709  0.2068383934488907  0.2780014331226332   F   F   T
  0.0908961657605190  0.0000000000000000  0.9884005360503677   F   F   T
  0.9091038502394824  0.0000000000000000  0.0115994709496365   F   F   T
  0.5908961807605237  0.5000000000000000  0.9884005360503677   F   F   T
  0.4091038192394763  0.5000000000000000  0.0115994709496365   F   F   T
  0.0651276987367169  0.0000000000000000  0.1731702869031295   F   F   F
  0.9348723412632864  0.0000000000000000  0.8268297220968748   F   F   F
  0.5651276907367162  0.5000000000000000  0.1731702869031295   F   F   F
  0.4348722792632884  0.5000000000000000  0.8268297220968748   F   F   F
  0.3232322479478498  0.0000000000000000  0.2811775434388935   F   F   F
  0.6767677830521492  0.0000000000000000  0.7188224665611074   F   F   F
  0.8232321869478483  0.5000000000000000  0.2811775434388935   F   F   F
  0.1767677830521492  0.5000000000000000  0.7188224665611074   F   F   F
  0.2371450689709107  0.0000000000000000  0.5350968358446693   F   F   F
  0.7628549210290885  0.0000000000000000  0.4649031931553367   F   F   F
  0.7371450539709130  0.5000000000000000  0.5350968358446693   F   F   F
  0.2628549670290852  0.5000000000000000  0.4649031931553367   F   F   F
  0.0737230912524822  0.0000000000000000  0.5803005376657069   F   F   F
  0.9262769377475166  0.0000000000000000  0.4196994923342956   F   F   F
  0.5737230372524849  0.5000000000000000  0.5803005376657069   F   F   F
  0.4262769067475176  0.5000000000000000  0.4196994923342956   F   F   F
  0.2409416364345844  0.0000000000000000  0.9615353170390577   F   F   F
  0.7590584065654156  0.0000000000000000  0.0384647379609433   F   F   F
  0.7409415744345864  0.5000000000000000  0.9615353170390577   F   F   F
  0.2590583915654108  0.5000000000000000  0.0384647379609433   F   F   F
  0.4786519765269475  0.0000000000000000  0.8299218257034013   F   F   F
  0.5213480344730499  0.0000000000000000  0.1700782242965957   F   F   F
  0.9786520075269465  0.5000000000000000  0.8299218257034013   F   F   F
  0.0213480384730502  0.5000000000000000  0.1700782242965957   F   F   F
  0.5000000029999967  0.0000000000000000  0.5000000149999977   F   F   F
  0.0000000029999967  0.5000000000000000  0.5000000149999977   F   F   F
  0.3046034909624993  0.0000000000000000  0.7724776577711339   F   F   F
  0.6953964580375001  0.0000000000000000  0.2275223922288703   F   F   F
  0.8046034599625003  0.5000000000000000  0.7724776577711339   F   F   F
  0.1953965050375004  0.5000000000000000  0.2275223922288703   F   F   F
  0.0873950428298471  0.0000000000000000  0.7883538065070326   F   F   F
  0.9126049511701524  0.0000000000000000  0.2116462034929683   F   F   F
  0.5873950808298503  0.5000000000000000  0.7883538065070326   F   F   F
  0.4126049511701524  0.5000000000000000  0.2116462034929683   F   F   F
  0.1854679453715278  0.2176264198711877  0.1107798517962451   F   F   F
  0.8145320236284732  0.7823735951288171  0.8892202182037536   F   F   F
  0.8145320236284732  0.2176264198711877  0.8892202182037536   F   F   F
  0.1854679453715278  0.7823735951288171  0.1107798517962451   F   F   F
  0.6854678993715311  0.7176264048711829  0.1107798517962451   F   F   F
  0.3145320546284722  0.2823735951288171  0.8892202182037536   F   F   F
  0.3145320546284722  0.7176264048711829  0.8892202182037536   F   F   F
  0.6854678993715311  0.2823735951288171  0.1107798517962451   F   F   F
  0.3680632523766505  0.2116865804417571  0.1097854628549868   F   F   F
  0.6319367506233462  0.7883134055582417  0.8902145571450149   F   F   F
  0.6319367506233462  0.2116865804417571  0.8902145571450149   F   F   F
  0.3680632523766505  0.7883134055582417  0.1097854628549868   F   F   F
  0.8680632213766515  0.7116865944417583  0.1097854628549868   F   F   F
  0.1319367506233462  0.2883134055582417  0.8902145571450149   F   F   F
  0.1319367506233462  0.7116865944417583  0.8902145571450149   F   F   F
  0.8680632213766515  0.2883134055582417  0.1097854628549868   F   F   F
  0.1782962724951318  0.2193542931214054  0.3345332927532567   F   F   F
  0.8217037195048675  0.7806456778785886  0.6654667772467420   F   F   F
  0.8217037195048675  0.2193542931214054  0.6654667772467420   F   F   F
  0.1782962724951318  0.7806456778785886  0.3345332927532567   F   F   F
  0.6782962644951311  0.7193543221214114  0.3345332927532567   F   F   F
  0.3217037505048665  0.2806457068785946  0.6654667772467420   F   F   F
  0.3217037505048665  0.7193543221214114  0.6654667772467420   F   F   F
  0.6782962644951311  0.2806457068785946  0.3345332927532567   F   F   F
  0.4921281690944213  0.2330998008962908  0.3300637603418650   F   F   F
  0.5078718109055771  0.7669002141037140  0.6699362896581391   F   F   F
  0.5078718109055771  0.2330998008962908  0.6699362896581391   F   F   F
  0.4921281690944213  0.7669002141037140  0.3300637603418650   F   F   F
  0.9921281380944222  0.7330997858962860  0.3300637603418650   F   F   F
  0.0078718419055761  0.2669002141037140  0.6699362896581391   F   F   F
  0.0078718419055761  0.7330997858962860  0.6699362896581391   F   F   F
  0.9921281380944222  0.2669002141037140  0.3300637603418650   F   F   F
  0.3630454875300799  0.2185273802479273  0.4779728280459210   F   F   F
  0.6369545384699151  0.7814725907520668  0.5220271619540782   F   F   F
  0.6369545384699151  0.2185273802479273  0.5220271619540782   F   F   F
  0.3630454875300799  0.7814725907520668  0.4779728280459210   F   F   F
  0.8630455185300789  0.7185274092479332  0.4779728280459210   F   F   F
  0.1369544924699184  0.2814725907520668  0.5220271619540782   F   F   F
  0.1369544924699184  0.7185274092479332  0.5220271619540782   F   F   F
  0.8630455185300789  0.2814725907520668  0.4779728280459210   F   F   F
  0.0000000000000000  0.2502668087555548  0.0000000000000000   F   F   F
  0.0000000000000000  0.7497331912444380  0.0000000000000000   F   F   F
  0.5000000000000000  0.7502668087555620  0.0000000000000000   F   F   F
  0.5000000000000000  0.2497331912444380  0.0000000000000000   F   F   F
 
  0.00000000E+00  0.00000000E+00  0.00000000E+00
  0.00000000E+00  0.00000000E+00  0.00000000E+00
  0.00000000E+00  0.00000000E+00  0.00000000E+00
  0.00000000E+00  0.00000000E+00  0.00000000E+00
  0.00000000E+00  0.00000000E+00  0.00000000E+00
  0.00000000E+00  0.00000000E+00  0.00000000E+00
  0.00000000E+00  0.00000000E+00  0.00000000E+00
  0.00000000E+00  0.00000000E+00  0.00000000E+00
  0.00000000E+00  0.00000000E+00  0.00000000E+00
  0.00000000E+00  0.00000000E+00  0.00000000E+00
  0.00000000E+00  0.00000000E+00  0.00000000E+00
  0.00000000E+00  0.00000000E+00  0.00000000E+00
  0.00000000E+00  0.00000000E+00  0.00000000E+00
  0.00000000E+00  0.00000000E+00  0.00000000E+00
  0.00000000E+00  0.00000000E+00  0.00000000E+00
  0.00000000E+00  0.00000000E+00  0.00000000E+00
  0.00000000E+00  0.00000000E+00  0.00000000E+00
  0.00000000E+00  0.00000000E+00  0.00000000E+00
  0.00000000E+00  0.00000000E+00  0.00000000E+00
  0.00000000E+00  0.00000000E+00  0.00000000E+00
  0.00000000E+00  0.00000000E+00  0.00000000E+00
  0.00000000E+00  0.00000000E+00  0.00000000E+00
  0.00000000E+00  0.00000000E+00  0.00000000E+00
  0.00000000E+00  0.00000000E+00  0.00000000E+00
  0.00000000E+00  0.00000000E+00  0.00000000E+00
  0.00000000E+00  0.00000000E+00  0.00000000E+00
  0.00000000E+00  0.00000000E+00  0.00000000E+00
  0.00000000E+00  0.00000000E+00  0.00000000E+00
  0.00000000E+00  0.00000000E+00  0.00000000E+00
  0.00000000E+00  0.00000000E+00  0.00000000E+00
  0.00000000E+00  0.00000000E+00  0.00000000E+00
  0.00000000E+00  0.00000000E+00  0.00000000E+00
  0.00000000E+00  0.00000000E+00  0.00000000E+00
  0.00000000E+00  0.00000000E+00  0.00000000E+00
  0.00000000E+00  0.00000000E+00  0.00000000E+00
  0.00000000E+00  0.00000000E+00  0.00000000E+00
  0.00000000E+00  0.00000000E+00  0.00000000E+00
  0.00000000E+00  0.00000000E+00  0.00000000E+00
  0.00000000E+00  0.00000000E+00  0.00000000E+00
  0.00000000E+00  0.00000000E+00  0.00000000E+00
  0.00000000E+00  0.00000000E+00  0.00000000E+00
  0.00000000E+00  0.00000000E+00  0.00000000E+00
  0.00000000E+00  0.00000000E+00  0.00000000E+00
  0.00000000E+00  0.00000000E+00  0.00000000E+00
  0.00000000E+00  0.00000000E+00  0.00000000E+00
  0.00000000E+00  0.00000000E+00  0.00000000E+00
  0.00000000E+00  0.00000000E+00  0.00000000E+00
  0.00000000E+00  0.00000000E+00  0.00000000E+00
  0.00000000E+00  0.00000000E+00  0.00000000E+00
  0.00000000E+00  0.00000000E+00  0.00000000E+00
  0.00000000E+00  0.00000000E+00  0.00000000E+00
  0.00000000E+00  0.00000000E+00  0.00000000E+00
  0.00000000E+00  0.00000000E+00  0.00000000E+00
  0.00000000E+00  0.00000000E+00  0.00000000E+00
  0.00000000E+00  0.00000000E+00  0.00000000E+00
  0.00000000E+00  0.00000000E+00  0.00000000E+00
  0.00000000E+00  0.00000000E+00  0.00000000E+00
  0.00000000E+00  0.00000000E+00  0.00000000E+00
  0.00000000E+00  0.00000000E+00  0.00000000E+00
  0.00000000E+00  0.00000000E+00  0.00000000E+00
  0.00000000E+00  0.00000000E+00  0.00000000E+00
  0.00000000E+00  0.00000000E+00  0.00000000E+00
  0.00000000E+00  0.00000000E+00  0.00000000E+00
  0.00000000E+00  0.00000000E+00  0.00000000E+00
  0.00000000E+00  0.00000000E+00  0.00000000E+00
  0.00000000E+00  0.00000000E+00  0.00000000E+00
  0.00000000E+00  0.00000000E+00  0.00000000E+00
  0.00000000E+00  0.00000000E+00  0.00000000E+00
  0.00000000E+00  0.00000000E+00  0.00000000E+00
  0.00000000E+00  0.00000000E+00  0.00000000E+00
  0.00000000E+00  0.00000000E+00  0.00000000E+00
  0.00000000E+00  0.00000000E+00  0.00000000E+00
  0.00000000E+00  0.00000000E+00  0.00000000E+00
  0.00000000E+00  0.00000000E+00  0.00000000E+00
  0.00000000E+00  0.00000000E+00  0.00000000E+00
  0.00000000E+00  0.00000000E+00  0.00000000E+00
  0.00000000E+00  0.00000000E+00  0.00000000E+00
  0.00000000E+00  0.00000000E+00  0.00000000E+00
  0.00000000E+00  0.00000000E+00  0.00000000E+00
  0.00000000E+00  0.00000000E+00  0.00000000E+00
  0.00000000E+00  0.00000000E+00  0.00000000E+00
  0.00000000E+00  0.00000000E+00  0.00000000E+00
  0.00000000E+00  0.00000000E+00  0.00000000E+00
  0.00000000E+00  0.00000000E+00  0.00000000E+00
  0.00000000E+00  0.00000000E+00  0.00000000E+00
  0.00000000E+00  0.00000000E+00  0.00000000E+00
  0.00000000E+00  0.00000000E+00  0.00000000E+00
  0.00000000E+00  0.00000000E+00  0.00000000E+00
  0.00000000E+00  0.00000000E+00  0.00000000E+00
  0.00000000E+00  0.00000000E+00  0.00000000E+00
  0.00000000E+00  0.00000000E+00  0.00000000E+00
  0.00000000E+00  0.00000000E+00  0.00000000E+00
  0.00000000E+00  0.00000000E+00  0.00000000E+00
  0.00000000E+00  0.00000000E+00  0.00000000E+00
  0.00000000E+00  0.00000000E+00  0.00000000E+00
  0.00000000E+00  0.00000000E+00  0.00000000E+00
  0.00000000E+00  0.00000000E+00  0.00000000E+00
  0.00000000E+00  0.00000000E+00  0.00000000E+00
  0.00000000E+00  0.00000000E+00  0.00000000E+00
  0.00000000E+00  0.00000000E+00  0.00000000E+00
  0.00000000E+00  0.00000000E+00  0.00000000E+00
  0.00000000E+00  0.00000000E+00  0.00000000E+00
