Ti1 Al3                                 
   1.00000000000000     
     3.9767323608774494    0.0000000000000000    0.0000000000000000
     0.0000000000000000    3.9776625251672186    0.0000000000000000
     0.0000000000000000    0.0000000000000000    3.9776625251672186
   Ti   Al
     1     3
Direct
  0.0000000000000000  0.0000000000000000  0.0000000000000000
  0.5000000000000000  0.5000000000000000  0.0000000000000000
  0.5000000000000000  0.0000000000000000  0.5000000000000000
  0.0000000000000000  0.5000000000000000  0.5000000000000000
 
  0.00000000E+00  0.00000000E+00  0.00000000E+00
  0.00000000E+00  0.00000000E+00  0.00000000E+00
  0.00000000E+00  0.00000000E+00  0.00000000E+00
  0.00000000E+00  0.00000000E+00  0.00000000E+00
