V1 Al3                                  
   1.00000000000000     
     3.8963501971792405    0.0000000000000000    0.0000000000000000
     0.0000000000000000    3.8976510234320134    0.0000000000000000
     0.0000000000000000    0.0000000000000000    3.8976510234320134
   V    Al
     1     3
Direct
  0.0000000000000000  0.0000000000000000  0.0000000000000000
  0.5000000000000000  0.5000000000000000  0.0000000000000000
  0.5000000000000000  0.0000000000000000  0.5000000000000000
  0.0000000000000000  0.5000000000000000  0.5000000000000000
 
  0.00000000E+00  0.00000000E+00  0.00000000E+00
  0.00000000E+00  0.00000000E+00  0.00000000E+00
  0.00000000E+00  0.00000000E+00  0.00000000E+00
  0.00000000E+00  0.00000000E+00  0.00000000E+00
