Cr1 Al3                                 
   1.00000000000000     
     3.8975898224512231    0.0000000000000000    0.0000000000000000
     0.0000000000000000    3.8988910625623547    0.0000000000000000
     0.0000000000000000    0.0000000000000000    3.8988910625623547
   Cr   Al
     1     3
Direct
  0.0000000000000000  0.0000000000000000  0.0000000000000000
  0.5000000000000000  0.5000000000000000  0.0000000000000000
  0.5000000000000000  0.0000000000000000  0.5000000000000000
  0.0000000000000000  0.5000000000000000  0.5000000000000000
 
  0.00000000E+00  0.00000000E+00  0.00000000E+00
  0.00000000E+00  0.00000000E+00  0.00000000E+00
  0.00000000E+00  0.00000000E+00  0.00000000E+00
  0.00000000E+00  0.00000000E+00  0.00000000E+00
