Fe12 C4                                 
   1.00000000000000     
     4.4660800227351203    0.0000000000000000    0.0000000000000000
     0.0000000000000000    5.0292200001945009    0.0000000000000000
     0.0000000000000000    0.0000000000000000    6.7286703060620301
   Fe   C 
    12     4
Direct
  0.8374447339810800  0.0359094956911150  0.2500000000000000
  0.3374447339810800  0.4640905043088850  0.7500000000000000
  0.6625552660189200  0.5359094956911150  0.2500000000000000
  0.1625552660189200  0.9640905043088850  0.7500000000000000
  0.3319475689678768  0.1766673273878894  0.0681350964489695
  0.8319475689678768  0.3233326726121106  0.9318649035510305
  0.1680524310321232  0.6766673273878894  0.4318649035510305
  0.6680524310321232  0.8233326726121106  0.5681350964489695
  0.6680524310321232  0.8233326726121106  0.9318649035510305
  0.1680524310321232  0.6766673273878894  0.0681350964489695
  0.8319475689678768  0.3233326726121106  0.5681350964489695
  0.3319475689678768  0.1766673273878894  0.4318649035510305
  0.4373620719080904  0.8770202792726280  0.2500000000000000
  0.9373620719080904  0.6229797207273720  0.7500000000000000
  0.0626379280919096  0.3770202792726280  0.2500000000000000
  0.5626379280919096  0.1229797207273720  0.7500000000000000
 
  0.00000000E+00  0.00000000E+00  0.00000000E+00
  0.00000000E+00  0.00000000E+00  0.00000000E+00
  0.00000000E+00  0.00000000E+00  0.00000000E+00
  0.00000000E+00  0.00000000E+00  0.00000000E+00
  0.00000000E+00  0.00000000E+00  0.00000000E+00
  0.00000000E+00  0.00000000E+00  0.00000000E+00
  0.00000000E+00  0.00000000E+00  0.00000000E+00
  0.00000000E+00  0.00000000E+00  0.00000000E+00
  0.00000000E+00  0.00000000E+00  0.00000000E+00
  0.00000000E+00  0.00000000E+00  0.00000000E+00
  0.00000000E+00  0.00000000E+00  0.00000000E+00
  0.00000000E+00  0.00000000E+00  0.00000000E+00
  0.00000000E+00  0.00000000E+00  0.00000000E+00
  0.00000000E+00  0.00000000E+00  0.00000000E+00
  0.00000000E+00  0.00000000E+00  0.00000000E+00
  0.00000000E+00  0.00000000E+00  0.00000000E+00
