Ca1 Al3                                 
   1.00000000000000     
     4.3025427335856845    0.0000000000000000    0.0000000000000000
     0.0000000000000000    4.3039791703170591    0.0000000000000000
     0.0000000000000000    0.0000000000000000    4.3039791703170591
   Ca   Al
     1     3
Direct
  0.0000000000000000  0.0000000000000000  0.0000000000000000
  0.5000000000000000  0.5000000000000000  0.0000000000000000
  0.5000000000000000  0.0000000000000000  0.5000000000000000
  0.0000000000000000  0.5000000000000000  0.5000000000000000
 
  0.00000000E+00  0.00000000E+00  0.00000000E+00
  0.00000000E+00  0.00000000E+00  0.00000000E+00
  0.00000000E+00  0.00000000E+00  0.00000000E+00
  0.00000000E+00  0.00000000E+00  0.00000000E+00
