Al12 O18                                
   1.00000000000000     
     4.8050280000000001    0.0000000000000000    0.0000000000000000
    -2.4025140000000000    4.1612760000000000    0.0000000000000000
     0.0000000000000000    0.0000000000000000   13.1162539999999996
   Al   O 
    12    18
Direct
  0.0000000000000000  0.0000000000000000  0.1478288519681996
  0.3333330000000032  0.6666669999999968  0.0188381480317972
  0.3333330000000032  0.6666669999999968  0.3144958519682035
  0.6666669999999968  0.3333330000000032  0.1855041480317965
  0.6666669999999968  0.3333330000000032  0.4811618519682028
  0.0000000000000000  0.0000000000000000  0.3521711480318004
  0.0000000000000000  0.0000000000000000  0.6478288519681996
  0.3333330000000032  0.6666669999999968  0.5188381480317972
  0.3333330000000032  0.6666669999999968  0.8144958519682035
  0.6666669999999968  0.3333330000000032  0.6855041480317965
  0.6666669999999968  0.3333330000000032  0.9811618519682028
  0.0000000000000000  0.0000000000000000  0.8521711480318004
  0.3061464061269561  0.0000000000000000  0.2500000000000000
  0.6666669999999968  0.0271865938730400  0.0833330000000032
  0.0000000000000000  0.3061464061269561  0.2500000000000000
  0.6938535938730439  0.6938535938730439  0.2500000000000000
  0.9728134061269600  0.6394794061269593  0.0833330000000032
  0.3605205938730407  0.3333330000000032  0.0833330000000032
  0.9728134061269600  0.3333330000000032  0.5833330000000032
  0.3333330000000032  0.3605205938730407  0.4166669999999968
  0.6666669999999968  0.6394794061269593  0.5833330000000032
  0.3605205938730407  0.0271865938730400  0.5833330000000032
  0.6394794061269593  0.9728134061269600  0.4166669999999968
  0.0271865938730400  0.6666669999999968  0.4166669999999968
  0.6394794061269593  0.6666669999999968  0.9166669999999968
  0.0000000000000000  0.6938535938730439  0.7500000000000000
  0.3333330000000032  0.9728134061269600  0.9166669999999968
  0.0271865938730400  0.3605205938730407  0.9166669999999968
  0.3061464061269561  0.3061464061269561  0.7500000000000000
  0.6938535938730439  0.0000000000000000  0.7500000000000000
 
  0.00000000E+00  0.00000000E+00  0.00000000E+00
  0.00000000E+00  0.00000000E+00  0.00000000E+00
  0.00000000E+00  0.00000000E+00  0.00000000E+00
  0.00000000E+00  0.00000000E+00  0.00000000E+00
  0.00000000E+00  0.00000000E+00  0.00000000E+00
  0.00000000E+00  0.00000000E+00  0.00000000E+00
  0.00000000E+00  0.00000000E+00  0.00000000E+00
  0.00000000E+00  0.00000000E+00  0.00000000E+00
  0.00000000E+00  0.00000000E+00  0.00000000E+00
  0.00000000E+00  0.00000000E+00  0.00000000E+00
  0.00000000E+00  0.00000000E+00  0.00000000E+00
  0.00000000E+00  0.00000000E+00  0.00000000E+00
  0.00000000E+00  0.00000000E+00  0.00000000E+00
  0.00000000E+00  0.00000000E+00  0.00000000E+00
  0.00000000E+00  0.00000000E+00  0.00000000E+00
  0.00000000E+00  0.00000000E+00  0.00000000E+00
  0.00000000E+00  0.00000000E+00  0.00000000E+00
  0.00000000E+00  0.00000000E+00  0.00000000E+00
  0.00000000E+00  0.00000000E+00  0.00000000E+00
  0.00000000E+00  0.00000000E+00  0.00000000E+00
  0.00000000E+00  0.00000000E+00  0.00000000E+00
  0.00000000E+00  0.00000000E+00  0.00000000E+00
  0.00000000E+00  0.00000000E+00  0.00000000E+00
  0.00000000E+00  0.00000000E+00  0.00000000E+00
  0.00000000E+00  0.00000000E+00  0.00000000E+00
  0.00000000E+00  0.00000000E+00  0.00000000E+00
  0.00000000E+00  0.00000000E+00  0.00000000E+00
  0.00000000E+00  0.00000000E+00  0.00000000E+00
  0.00000000E+00  0.00000000E+00  0.00000000E+00
  0.00000000E+00  0.00000000E+00  0.00000000E+00
