Al12 O18
1.0
4.805028 0.000000 0.000000
-2.402514 4.161276 0.000000
0.000000 0.000000 13.116254
Al O
12 18
direct
0.000000 0.000000 0.147904 Al
0.333333 0.666667 0.018763 Al
0.333333 0.666667 0.314571 Al
0.666667 0.333333 0.185429 Al
0.666667 0.333333 0.481237 Al
0.000000 0.000000 0.352096 Al
0.000000 0.000000 0.647904 Al
0.333333 0.666667 0.518763 Al
0.333333 0.666667 0.814571 Al
0.666667 0.333333 0.685429 Al
0.666667 0.333333 0.981237 Al
0.000000 0.000000 0.852096 Al
0.306146 0.000000 0.250000 O
0.666667 0.027187 0.083333 O
0.000000 0.306146 0.250000 O
0.693854 0.693854 0.250000 O
0.972813 0.639479 0.083333 O
0.360521 0.333333 0.083333 O
0.972813 0.333333 0.583333 O
0.333333 0.360521 0.416667 O
0.666667 0.639479 0.583333 O
0.360521 0.027187 0.583333 O
0.639479 0.972813 0.416667 O
0.027187 0.666667 0.416667 O
0.639479 0.666667 0.916667 O
0.000000 0.693854 0.750000 O
0.333333 0.972813 0.916667 O
0.027187 0.360521 0.916667 O
0.306146 0.306146 0.750000 O
0.693854 0.000000 0.750000 O
