Sc2                                     
   1.00000000000000     
     3.3200189110691842    0.0000000091225955    0.0000000000000000
    -1.6600089262372670    2.8752203934252329    0.0000000000000000
     0.0000000000000000    0.0000000000000000    5.1665624127867140
   Sc
     2
Direct
  0.3333330000000032  0.6666669999999968  0.2500000000000000
  0.6666669999999968  0.3333330000000032  0.7500000000000000
 
  0.00000000E+00  0.00000000E+00  0.00000000E+00
  0.00000000E+00  0.00000000E+00  0.00000000E+00
