Al78 Fe24                               
   1.00000000000000     
    14.6981182566091597    0.0000000000000000   -4.6936743719493599
     0.0000000000000000    8.0238905337661510    0.0000000000000000
     0.0005218751201288    0.0000000000000000   12.4299974797111972
   Al   Fe
    78    24
Direct
  0.0652264107819960  0.0000000000000000  0.1732533968940615
  0.4347745892180015  0.5000000000000000  0.8267466031059385
  0.3234236846111997  0.0000000000000000  0.2813830647038316
  0.1765763153888003  0.5000000000000000  0.7186169352961684
  0.2372902271134052  0.0000000000000000  0.5346464300729892
  0.2627097728865948  0.5000000000000000  0.4653535699270108
  0.0738021077539983  0.0000000000000000  0.5803045755621667
  0.4261978922460017  0.5000000000000000  0.4196954244378333
  0.2408635528654415  0.0000000000000000  0.9612786748720836
  0.2591364471345585  0.5000000000000000  0.0387213251279164
  0.4786657909930341  0.0000000000000000  0.8298729452578399
  0.0213342090069659  0.5000000000000000  0.1701270547421601
  0.0000000000000000  0.5000000000000000  0.5000000000000000
  0.3046904658851375  0.0000000000000000  0.7723356712354672
  0.1953095341148696  0.5000000000000000  0.2276643287645328
  0.0872180386356760  0.0000000000000000  0.7882777630813536
  0.4127829613643215  0.5000000000000000  0.2117222369186464
  0.1854832263180839  0.7824148278795349  0.1108553198773734
  0.1854832263180839  0.2175851721204651  0.1108553198773734
  0.3145167736819161  0.7175851721204651  0.8891446801226266
  0.3145167736819161  0.2824148278795349  0.8891446801226266
  0.3681008501218415  0.7882933059064925  0.1097791460945174
  0.3681008501218415  0.2117066940935075  0.1097791460945174
  0.1318991498781585  0.7117066940935075  0.8902208539054826
  0.1318991498781585  0.2882933059064925  0.8902208539054826
  0.1783946111308907  0.7804460781996241  0.3346729853168853
  0.1783946111308907  0.2195539218003759  0.3346729853168853
  0.3216053888691093  0.7195539218003759  0.6653270146831147
  0.3216053888691093  0.2804460781996241  0.6653270146831147
  0.4921700227100487  0.7668482036797926  0.3301766162487425
  0.4921700227100487  0.2331527963202049  0.3301766162487425
  0.0078299772899513  0.7331517963202074  0.6698233837512575
  0.0078299772899513  0.2668482036797926  0.6698233837512575
  0.3630567082671448  0.7813595843619510  0.4780198084466676
  0.3630567082671448  0.2186404156380490  0.4780198084466676
  0.1369432917328552  0.7186404156380490  0.5219801915533324
  0.1369432917328552  0.2813595843619510  0.5219801915533324
  0.0000000000000000  0.7498023416214465  0.0000000000000000
  0.0000000000000000  0.2501976583785535  0.0000000000000000
  0.5652264107819960  0.5000000000000000  0.1732533968940615
  0.9347735892180040  0.0000000000000000  0.8267466031059385
  0.8234236846111997  0.5000000000000000  0.2813830647038316
  0.6765763153888003  0.0000000000000000  0.7186169352961684
  0.7372902271134052  0.5000000000000000  0.5346464300729892
  0.7627097728865948  0.0000000000000000  0.4653535699270108
  0.5738021077539983  0.5000000000000000  0.5803045755621667
  0.9261978922460017  0.0000000000000000  0.4196954244378333
  0.7408635528654415  0.5000000000000000  0.9612786748720836
  0.7591364471345585  0.0000000000000000  0.0387213251279164
  0.9786657909930341  0.5000000000000000  0.8298729452578399
  0.5213342090069659  0.0000000000000000  0.1701270547421601
  0.5000000000000000  0.0000000000000000  0.5000000000000000
  0.8046894658851329  0.5000000000000000  0.7723356712354672
  0.6953105341148671  0.0000000000000000  0.2276643287645328
  0.5872180386356760  0.5000000000000000  0.7882777630813536
  0.9127819613643240  0.0000000000000000  0.2117222369186464
  0.6854832263180839  0.2824148278795349  0.1108553198773734
  0.6854832263180839  0.7175851721204651  0.1108553198773734
  0.8145167736819161  0.2175851721204651  0.8891446801226266
  0.8145167736819161  0.7824148278795349  0.8891446801226266
  0.8681008501218415  0.2882933059064925  0.1097791460945174
  0.8681008501218415  0.7117066940935075  0.1097791460945174
  0.6318991498781585  0.2117066940935075  0.8902208539054826
  0.6318991498781585  0.7882933059064925  0.8902208539054826
  0.6783946111308907  0.2804460781996241  0.3346729853168853
  0.6783946111308907  0.7195539218003759  0.3346729853168853
  0.8216053888691093  0.2195539218003759  0.6653270146831147
  0.8216053888691093  0.7804460781996241  0.6653270146831147
  0.9921710227100533  0.2668482036797926  0.3301766162487425
  0.9921710227100533  0.7331517963202074  0.3301766162487425
  0.5078289772899467  0.2331527963202049  0.6698233837512575
  0.5078289772899467  0.7668482036797926  0.6698233837512575
  0.8630567082671448  0.2813595843619510  0.4780198084466676
  0.8630567082671448  0.7186404156380490  0.4780198084466676
  0.6369432917328552  0.2186404156380490  0.5219801915533324
  0.6369432917328552  0.7813595843619510  0.5219801915533324
  0.5000000000000000  0.2498023416214465  0.0000000000000000
  0.5000000000000000  0.7501976583785535  0.0000000000000000
  0.0854727117459078  0.0000000000000000  0.3831594167972341
  0.4145272882540922  0.5000000000000000  0.6168405832027659
  0.4014290633128041  0.0000000000000000  0.6236447292811249
  0.0985709366871959  0.5000000000000000  0.3763552707188751
  0.0909779274075859  0.0000000000000000  0.9880553340814089
  0.4090210725924166  0.5000000000000000  0.0119446659185911
  0.4020253044924331  0.0000000000000000  0.9852795642212797
  0.0979746955075669  0.5000000000000000  0.0147204357787203
  0.3199275291451329  0.7065161520441023  0.2777057038844148
  0.3199275291451329  0.2934838479558977  0.2777057038844148
  0.1800724708548671  0.7934838479558977  0.7222942961155852
  0.1800724708548671  0.2065161520441023  0.7222942961155852
  0.5854727117459078  0.5000000000000000  0.3831594167972341
  0.9145272882540922  0.0000000000000000  0.6168405832027659
  0.9014290633128041  0.5000000000000000  0.6236447292811249
  0.5985709366871959  0.0000000000000000  0.3763552707188751
  0.5909779274075859  0.5000000000000000  0.9880553340814089
  0.9090220725924141  0.0000000000000000  0.0119446659185911
  0.9020253044924331  0.5000000000000000  0.9852795642212797
  0.5979746955075669  0.0000000000000000  0.0147204357787203
  0.8199275291451329  0.2065161520441023  0.2777057038844148
  0.8199275291451329  0.7934838479558977  0.2777057038844148
  0.6800724708548671  0.2934838479558977  0.7222942961155852
  0.6800724708548671  0.7065161520441023  0.7222942961155852
 
  0.00000000E+00  0.00000000E+00  0.00000000E+00
  0.00000000E+00  0.00000000E+00  0.00000000E+00
  0.00000000E+00  0.00000000E+00  0.00000000E+00
  0.00000000E+00  0.00000000E+00  0.00000000E+00
  0.00000000E+00  0.00000000E+00  0.00000000E+00
  0.00000000E+00  0.00000000E+00  0.00000000E+00
  0.00000000E+00  0.00000000E+00  0.00000000E+00
  0.00000000E+00  0.00000000E+00  0.00000000E+00
  0.00000000E+00  0.00000000E+00  0.00000000E+00
  0.00000000E+00  0.00000000E+00  0.00000000E+00
  0.00000000E+00  0.00000000E+00  0.00000000E+00
  0.00000000E+00  0.00000000E+00  0.00000000E+00
  0.00000000E+00  0.00000000E+00  0.00000000E+00
  0.00000000E+00  0.00000000E+00  0.00000000E+00
  0.00000000E+00  0.00000000E+00  0.00000000E+00
  0.00000000E+00  0.00000000E+00  0.00000000E+00
  0.00000000E+00  0.00000000E+00  0.00000000E+00
  0.00000000E+00  0.00000000E+00  0.00000000E+00
  0.00000000E+00  0.00000000E+00  0.00000000E+00
  0.00000000E+00  0.00000000E+00  0.00000000E+00
  0.00000000E+00  0.00000000E+00  0.00000000E+00
  0.00000000E+00  0.00000000E+00  0.00000000E+00
  0.00000000E+00  0.00000000E+00  0.00000000E+00
  0.00000000E+00  0.00000000E+00  0.00000000E+00
  0.00000000E+00  0.00000000E+00  0.00000000E+00
  0.00000000E+00  0.00000000E+00  0.00000000E+00
  0.00000000E+00  0.00000000E+00  0.00000000E+00
  0.00000000E+00  0.00000000E+00  0.00000000E+00
  0.00000000E+00  0.00000000E+00  0.00000000E+00
  0.00000000E+00  0.00000000E+00  0.00000000E+00
  0.00000000E+00  0.00000000E+00  0.00000000E+00
  0.00000000E+00  0.00000000E+00  0.00000000E+00
  0.00000000E+00  0.00000000E+00  0.00000000E+00
  0.00000000E+00  0.00000000E+00  0.00000000E+00
  0.00000000E+00  0.00000000E+00  0.00000000E+00
  0.00000000E+00  0.00000000E+00  0.00000000E+00
  0.00000000E+00  0.00000000E+00  0.00000000E+00
  0.00000000E+00  0.00000000E+00  0.00000000E+00
  0.00000000E+00  0.00000000E+00  0.00000000E+00
  0.00000000E+00  0.00000000E+00  0.00000000E+00
  0.00000000E+00  0.00000000E+00  0.00000000E+00
  0.00000000E+00  0.00000000E+00  0.00000000E+00
  0.00000000E+00  0.00000000E+00  0.00000000E+00
  0.00000000E+00  0.00000000E+00  0.00000000E+00
  0.00000000E+00  0.00000000E+00  0.00000000E+00
  0.00000000E+00  0.00000000E+00  0.00000000E+00
  0.00000000E+00  0.00000000E+00  0.00000000E+00
  0.00000000E+00  0.00000000E+00  0.00000000E+00
  0.00000000E+00  0.00000000E+00  0.00000000E+00
  0.00000000E+00  0.00000000E+00  0.00000000E+00
  0.00000000E+00  0.00000000E+00  0.00000000E+00
  0.00000000E+00  0.00000000E+00  0.00000000E+00
  0.00000000E+00  0.00000000E+00  0.00000000E+00
  0.00000000E+00  0.00000000E+00  0.00000000E+00
  0.00000000E+00  0.00000000E+00  0.00000000E+00
  0.00000000E+00  0.00000000E+00  0.00000000E+00
  0.00000000E+00  0.00000000E+00  0.00000000E+00
  0.00000000E+00  0.00000000E+00  0.00000000E+00
  0.00000000E+00  0.00000000E+00  0.00000000E+00
  0.00000000E+00  0.00000000E+00  0.00000000E+00
  0.00000000E+00  0.00000000E+00  0.00000000E+00
  0.00000000E+00  0.00000000E+00  0.00000000E+00
  0.00000000E+00  0.00000000E+00  0.00000000E+00
  0.00000000E+00  0.00000000E+00  0.00000000E+00
  0.00000000E+00  0.00000000E+00  0.00000000E+00
  0.00000000E+00  0.00000000E+00  0.00000000E+00
  0.00000000E+00  0.00000000E+00  0.00000000E+00
  0.00000000E+00  0.00000000E+00  0.00000000E+00
  0.00000000E+00  0.00000000E+00  0.00000000E+00
  0.00000000E+00  0.00000000E+00  0.00000000E+00
  0.00000000E+00  0.00000000E+00  0.00000000E+00
  0.00000000E+00  0.00000000E+00  0.00000000E+00
  0.00000000E+00  0.00000000E+00  0.00000000E+00
  0.00000000E+00  0.00000000E+00  0.00000000E+00
  0.00000000E+00  0.00000000E+00  0.00000000E+00
  0.00000000E+00  0.00000000E+00  0.00000000E+00
  0.00000000E+00  0.00000000E+00  0.00000000E+00
  0.00000000E+00  0.00000000E+00  0.00000000E+00
  0.00000000E+00  0.00000000E+00  0.00000000E+00
  0.00000000E+00  0.00000000E+00  0.00000000E+00
  0.00000000E+00  0.00000000E+00  0.00000000E+00
  0.00000000E+00  0.00000000E+00  0.00000000E+00
  0.00000000E+00  0.00000000E+00  0.00000000E+00
  0.00000000E+00  0.00000000E+00  0.00000000E+00
  0.00000000E+00  0.00000000E+00  0.00000000E+00
  0.00000000E+00  0.00000000E+00  0.00000000E+00
  0.00000000E+00  0.00000000E+00  0.00000000E+00
  0.00000000E+00  0.00000000E+00  0.00000000E+00
  0.00000000E+00  0.00000000E+00  0.00000000E+00
  0.00000000E+00  0.00000000E+00  0.00000000E+00
  0.00000000E+00  0.00000000E+00  0.00000000E+00
  0.00000000E+00  0.00000000E+00  0.00000000E+00
  0.00000000E+00  0.00000000E+00  0.00000000E+00
  0.00000000E+00  0.00000000E+00  0.00000000E+00
  0.00000000E+00  0.00000000E+00  0.00000000E+00
  0.00000000E+00  0.00000000E+00  0.00000000E+00
  0.00000000E+00  0.00000000E+00  0.00000000E+00
  0.00000000E+00  0.00000000E+00  0.00000000E+00
  0.00000000E+00  0.00000000E+00  0.00000000E+00
  0.00000000E+00  0.00000000E+00  0.00000000E+00
  0.00000000E+00  0.00000000E+00  0.00000000E+00
  0.00000000E+00  0.00000000E+00  0.00000000E+00
