Ca4
   1.00000000000000     
     5.5278288530219983    0.0000000000000000    0.0000000000000000
     0.0000000000000000    5.5278288530219983    0.0000000000000000
     0.0000000000000000    0.0000000000000000    5.5278288530219983
   Ca
     4
Direct
  0.0000000000000000  0.0000000000000000  0.0000000000000000
  0.0000000000000000  0.5000000000000000  0.5000000000000000
  0.5000000000000000  0.0000000000000000  0.5000000000000000
  0.5000000000000000  0.5000000000000000  0.0000000000000000

  0.00000000E+00  0.00000000E+00  0.00000000E+00
  0.00000000E+00  0.00000000E+00  0.00000000E+00
  0.00000000E+00  0.00000000E+00  0.00000000E+00
  0.00000000E+00  0.00000000E+00  0.00000000E+00
