Mg3 Cl6                                 
   1.00000000000000     
     3.6790623302444283    0.0000000000000013    0.0000000000000000
    -1.8395311651222142    3.1861616791894751    0.0000000000000001
    -0.0000000000000005    0.0000000000000001   19.1064211107298618
   Mg   Cl
     3     6
Direct
  0.0000000000000000  0.0000000000000000  0.0000000000000000
  0.6666669999999968  0.3333330000000032  0.3333330000000032
  0.3333330000000032  0.6666669999999968  0.6666669999999968
  0.6666669999999968  0.3333330000000032  0.0716405533524309
  0.0000000000000000  0.0000000000000000  0.2616924466475652
  0.3333330000000032  0.6666669999999968  0.4049745533524387
  0.6666669999999968  0.3333330000000032  0.5950254466475684
  0.0000000000000000  0.0000000000000000  0.7383075533524277
  0.3333330000000032  0.6666669999999968  0.9283594466475762
 
  0.00000000E+00  0.00000000E+00  0.00000000E+00
  0.00000000E+00  0.00000000E+00  0.00000000E+00
  0.00000000E+00  0.00000000E+00  0.00000000E+00
  0.00000000E+00  0.00000000E+00  0.00000000E+00
  0.00000000E+00  0.00000000E+00  0.00000000E+00
  0.00000000E+00  0.00000000E+00  0.00000000E+00
  0.00000000E+00  0.00000000E+00  0.00000000E+00
  0.00000000E+00  0.00000000E+00  0.00000000E+00
  0.00000000E+00  0.00000000E+00  0.00000000E+00
