V2                                      
   1.00000000000000     
     2.9974252199340103    0.0000000000000000    0.0000000000000000
     0.0000000000000000    2.9974252199340103    0.0000000000000000
     0.0000000000000000    0.0000000000000000    2.9974252199340103
   V 
     2
Direct
  0.0000000000000000  0.0000000000000000  0.0000000000000000
  0.5000000000000000  0.5000000000000000  0.5000000000000000
 
  0.00000000E+00  0.00000000E+00  0.00000000E+00
  0.00000000E+00  0.00000000E+00  0.00000000E+00
